
  19    0


   0   9 2 3 4 6 14 15 16 17 18 
   7   4 13 12 8 5 
   9   3 11 10 7 
   8   2 8 5 
   2   1 7 
   6   1 9 
   6   1 19
   4   1 19
   6   1 19
   2   1 19
   3   1 19
   2   1 19
   3   1 19
   6   1 19
  10   1 19
   3   1 19
   5   1 19
   7   1 19
   0   0 
